% From JaCoP's nonogramRepository/data095.nin
 rows = 20;
 row_rule_len = 7;
 row_rules = array2d(1..rows, 1..row_rule_len, 
[
 0,0,0,0,0,0,3,
 0,0,0,0,0,0,2,
 0,0,0,0,0,4,1,
 0,0,4,1,2,2,1,
 0,0,3,1,2,2,1,
 0,0,4,2,2,4,3,
 0,0,3,3,1,4,4,
 3,4,1,1,2,2,2,
 0,3,3,2,2,4,1,
 3,3,3,1,1,2,1,
 2,4,4,1,2,3,1,
 0,0,0,12,3,3,1,
 0,3,2,2,5,2,1,
 0,2,1,3,3,4,1,
 2,1,5,3,1,1,2,
 0,0,2,1,7,1,1,
 0,0,0,1,3,1,3,
 0,0,0,0,1,3,2,
 0,0,0,0,1,1,2,
 0,0,0,0,0,0,1
]);

 cols = 25;
 col_rule_len = 4;
 col_rules = array2d(1..cols, 1..col_rule_len, 
[
 0,0,0,9,
 0,0,0,13,
 0,6,2,1,
 0,0,4,2,
 0,1,3,5,
 0,1,2,7,
 0,0,4,10,
 0,2,3,1,
 0,2,4,1,
 0,2,5,2,
 0,2,3,2,
 0,0,1,6,
 0,2,1,6,
 0,4,3,5,
 0,0,3,5,
 0,3,1,4,
 0,4,1,6,
 2,1,3,1,
 0,0,1,3,
 0,0,1,3,
 1,2,1,1,
 0,0,2,10,
 0,2,5,2,
 0,0,5,3,
 0,0,1,10
]);

